Route 1: 80 23 41 199 56 116 47 72 49 65 19 125 152 118 77 92 61 115 18 67 96 55 168 99 171 154 174 16 73 91 126 79 17 133 89 58 166 157 161 11 84 50 26 90 173 5 57 45 22 151 78 181 86 183 53 169 70 163 148 164
Route 2: 111 144 131 179 62 33 192 36 190 104 3 63 74 35 162 137 59 132 185 158 82 2 106 76 108 188 134 149 94 28 97 117 81 175 172 120 52 34 4 165 54 100 182 135 110 12 87 113 25 180 170 30 83 189 46 105 93 198 10 123 64 142 14 85 153
Route 3: 196 186 145 200 107 38 95 128 122 112 197 167 178 48 71 191 143 42 119 184 102 60 194 13 32 114 21 68 24 138 124 69 75 43 129 103 29 139 140 9 147 160 31 195 15 155 37 1 51 39
Route 4: 8 177 150 88 44 127 146 159 193 27 40 6 136 141 66 130 176 101 187 7 156 98 121 20 109
Vehicles: 4
Distance: 3378.75
